p cnf 47 135
a 16 5 0
e 1 2 3 4 6 7 8 9 10 11 12 13 14 15 17 18 19 20 21 22 23 24 25 26 27 28 29 30 31 32 33 34 35 36 37 38 39 40 41 42 43 44 45 46 47 0
3 1 0
3 2 0
-1 -2 -3 0
6 -4 0
6 -5 0
4 5 -6 0
3 6 -7 0
-3 -6 -7 0
3 -6 7 0
-3 6 7 0
-9 8 0
-9 -4 0
-8 4 9 0
10 -2 0
10 -9 0
2 9 -10 0
-11 10 0
-11 -8 0
-10 8 11 0
-12 11 0
-12 -6 0
-11 6 12 0
13 -12 0
13 3 0
12 -3 -13 0
-14 7 0
-14 13 0
-7 -13 14 0
-15 -5 -16 0
15 5 -16 0
-15 5 16 0
15 -5 16 0
17 16 0
17 -15 0
-16 15 -17 0
11 17 -18 0
-11 -17 -18 0
11 -17 18 0
-11 17 18 0
-18 19 -20 0
18 -19 -20 0
-18 -19 20 0
18 19 20 0
-21 14 0
-21 20 0
-14 -20 21 0
23 -22 0
23 -2 0
22 2 -23 0
-24 23 0
-24 -5 0
-23 5 24 0
-25 9 0
-25 24 0
-9 -24 25 0
8 25 -26 0
-8 -25 -26 0
8 -25 26 0
-8 25 26 0
-26 -23 -27 0
26 23 -27 0
-26 23 27 0
26 -23 27 0
28 27 0
28 -12 0
-27 12 -28 0
16 -29 -30 0
-16 29 -30 0
16 29 30 0
-16 -29 30 0
-31 -30 0
-31 -15 0
30 15 31 0
6 31 -32 0
-6 -31 -32 0
6 -31 32 0
-6 31 32 0
-33 29 0
-33 32 0
-29 -32 33 0
-34 22 0
-34 11 0
-22 -11 34 0
34 -8 -35 0
-34 8 -35 0
34 8 35 0
-34 -8 35 0
33 -35 -36 0
-33 35 -36 0
33 35 36 0
-33 -35 36 0
-28 -36 -37 0
28 36 -37 0
-28 36 37 0
28 -36 37 0
38 -21 0
38 -37 0
21 37 -38 0
39 -11 0
39 29 0
11 -29 -39 0
40 10 0
40 11 0
-10 -11 -40 0
41 40 0
41 15 0
-40 -15 -41 0
42 -39 0
42 41 0
39 -41 -42 0
-44 2 0
-44 -29 0
-2 29 44 0
-45 -43 0
-45 -44 0
43 44 45 0
-46 42 0
-46 -45 0
-42 45 46 0
-47 -38 0
-47 -46 0
38 46 47 0
-13 -42 25 -37 0
40 -10 -21 0
-35 47 0
-3 -8 -17 -16 41 45 2 -15 0
-45 -42 -25 47 7 -43 -4 0
-27 -15 -37 9 14 6 -33 0
-39 2 -16 0
-8 -10 -20 0
-33 23 -22 39 35 -5 -41 0
-34 39 36 -14 22 0
37 34 43 26 -46 -11 0
5 22 41 -33 -20 16 -11 -19 0
47 0
